50
5469 1242 2801 4308 169 4982 9521 4286 8341 9601 205 131 4361 9600 4545 7977 6716 452 4659 6438 1598 1323 6675 3004 6907 2773 761 3746 7873 3490 5460 7740 2771 8669 411 4502 2417 1709 8999 1661 7802 4711 9453 8858 164 9516 5590 7268 1055 7188 
5469 1242 2799 4308 168 4980 9519 4284 8340 9600 204 129 4359 9600 4545 7977 6714 450 4659 6438 1596 1323 6675 3003 6906 2772 759 3744 7872 3489 5460 7740 2769 8667 411 4500 2415 1707 8997 1659 7800 4710 9453 8856 162 9516 5589 7266 1053 7188 
118761
